100 8
609 264
324 389
247 630
641 809
486 727
595 665
519 449
666 290
746 828
586 521
305 497
672 759
316 233
792 450
316 679
181 513
374 529
520 660
851 405
121 746
706 575
312 754
818 883
379 447
175 835
303 147
381 715
337 438
278 400
184 852
239 145
358 706
455 187
240 317
802 850
414 235
220 485
355 232
312 319
138 747
484 770
634 380
813 928
369 413
637 359
287 661
798 908
844 577
841 411
358 743
886 561
803 912
552 366
299 329
357 633
594 461
354 482
686 366
136 399
90 746
389 713
674 706
312 426
714 505
219 388
541 587
720 579
530 341
367 784
354 280
451 290
299 373
836 824
469 751
403 374
291 467
490 802
89 913
415 264
236 895
291 406
640 791
685 239
192 560
168 525
350 571
412 616
534 744
394 581
156 463
545 514
392 349
404 770
306 421
836 546
512 737
188 865
357 151
672 337
227 720
